Set parameter TokenServer to value "hpc-licenses.hpcc.usc.edu"
Set parameter TimeLimit to value 3600
Gurobi Optimizer version 9.5.1 build v9.5.1rc2 (linux64)
Thread count: 20 physical cores, 20 logical processors, using up to 20 threads
Optimize a model with 6007 rows, 4529 columns and 24534 nonzeros
Model fingerprint: 0x13e6d81e
Variable types: 4506 continuous, 23 integer (23 binary)
Coefficient statistics:
  Matrix range     [1e+00, 1e+00]
  Objective range  [7e-04, 1e+00]
  Bounds range     [1e+00, 1e+00]
  RHS range        [1e+00, 2e+02]
Presolve removed 1514 rows and 1511 columns
Presolve time: 0.05s
Presolved: 4493 rows, 3018 columns, 21993 nonzeros
Variable types: 2998 continuous, 20 integer (20 binary)
Found heuristic solution: objective 296.7417388

Root relaxation: objective 3.011884e+02, 2655 iterations, 0.08 seconds (0.12 work units)

    Nodes    |    Current Node    |     Objective Bounds      |     Work
 Expl Unexpl |  Obj  Depth IntInf | Incumbent    BestBd   Gap | It/Node Time

     0     0  301.18838    0    2  296.74174  301.18838  1.50%     -    0s
     0     0  301.02859    0    2  296.74174  301.02859  1.44%     -    0s
H    0     0                     300.2920701  301.02859  0.25%     -    0s

Cutting planes:
  Gomory: 4
  MIR: 102
  Flow cover: 3
  RLT: 7

Explored 1 nodes (2730 simplex iterations) in 0.30 seconds (0.28 work units)
Thread count was 20 (of 20 available processors)

Solution count 2: 300.292 296.742 

Optimal solution found (tolerance 1.00e-04)
Best objective 3.002920700857e+02, best bound 3.002920700857e+02, gap 0.0000%



#########node  1
V1.8
#########node  2
5.551115123125783e-17,1.0
#########node  3
1.0,5.551115123125783e-17


Total Solving Time 0.6898741722106934
obj value 300.2920700857171
Policy Regret train (Sum) 0.5246451196991215
Best Treatment Found train (%) 90.2
treatment classification acc train (%) 68.4
Policy Regret test (Sum) 110.93848330628616
Best Treatment Found test (%) 62.73
treatment classification acc test (%) 67.58999999999999
